c WARNING: for repeatability, setting FPU to use double precision
d VARIABLES            26972        
d CONSTRAINTS          91656        
c ============================[ Problem Statistics ]=============================
c |                                                                             |
c |  Number of variables:         26972                                         |
c |  Number of clauses:           91656                                         |
c |  Parse time:                   0.01 s                                       |
c |                                                                             |
c ============================[ Search Statistics ]==============================
c | Conflicts |          ORIGINAL         |          LEARNT          | Progress |
c |           |    Vars  Clauses Literals |    Limit  Clauses Lit/Cl |          |
c ===============================================================================
c |       100 |   17595    67622   170173 |    24794       99     33 | 34.766 % |
c |       250 |   17595    67618   170163 |    27274      249     70 | 34.766 % |
c |       475 |   17595    67618   170163 |    30001      474     49 | 34.766 % |
c |       812 |   17595    67618   170163 |    33001      811     47 | 34.766 % |
c |      1318 |   17595    67618   170163 |    36301     1317     52 | 34.766 % |
c ===============================================================================
c restarts              : 10
c conflicts             : 1514           (8053 /sec)
c decisions             : 10877          (0.00 % random) (57853 /sec)
c propagations          : 1770350        (9416204 /sec)
c conflict literals     : 80595          (7.95 % deleted)
d RESTARTS             10
d FAILURES             1514         
d NODES                10877        
d BACKTRACKS           10877        
d PROPAGATIONS         1770350      
d NOGOODSIZE           53.23 
d MEMORY               12.00 
d TIME                 0.188011 

s SATISFIABLE
